
  22    4
  10   10   10   10

   0   0   0   0   0   6 2 3 4 8 9 10 
   3  10  10  10  10   5 21 20 13 7 6 
   9  10  10  10  10   6 21 20 18 16 13 5 
   3  10  10  10  10   5 18 17 16 15 11 
   7  10  10  10  10   4 19 17 15 12 
   2  10  10  10  10   4 19 17 12 11 
   6  10  10  10  10   4 18 16 15 14 
   7  10  10  10  10   4 20 16 15 14 
  10  10  10  10  10   3 16 15 11 
   3  10  10  10  10   2 15 14 
   7  10  10  10  10   1 14 
   5  10  10  10  10   1 14 
   9  10  10  10  10   1 15 
   9  10  10  10  10   1 22
   8  10  10  10  10   1 22
   3  10  10  10  10   1 22
   7  10  10  10  10   1 22
   8  10  10  10  10   1 22
   7  10  10  10  10   1 22
   1  10  10  10  10   1 22
   4  10  10  10  10   1 22
   0   0   0   0   0   0 
